(set-info :source |printed by MathSAT|)
(declare-fun call_firefly.ite13 () Int)
(declare-fun param_e5 () Bool)
(declare-fun param_e7 () Bool)
(declare-fun param_e4 () Bool)
(declare-fun call_firefly.ite40 () Int)
(declare-fun call_firefly.ite10 () Int)
(declare-fun call_firefly.flby3 () Int)
(declare-fun exclusive () Int)
(declare-fun call_firefly.ite21 () Int)
(declare-fun invalid () Int)
(declare-fun param_e1 () Bool)
(declare-fun call_firefly.ite5 () Int)
(declare-fun call_firefly.ite38 () Int)
(declare-fun call_firefly.ite14 () Int)
(declare-fun call_firefly.garde3 () Bool)
(declare-fun call_firefly.shared () Int)
(declare-fun dirty () Int)
(declare-fun call_firefly.ite36 () Int)
(declare-fun param_e2 () Bool)
(declare-fun call_firefly.ite30 () Int)
(declare-fun call_firefly.ite33 () Int)
(declare-fun param_i_invalid () Int)
(declare-fun call_firefly.ite34 () Int)
(declare-fun call_firefly.dirty () Int)
(declare-fun call_firefly.exclusive () Int)
(declare-fun call_firefly.ite8 () Int)
(declare-fun call_First.First () Int)
(declare-fun call_firefly.flby2 () Int)
(declare-fun _OK_ () Bool)
(declare-fun call_firefly.ite37 () Int)
(declare-fun call_firefly.ite25 () Int)
(declare-fun call_firefly.ite23 () Int)
(declare-fun call_firefly.ite31 () Int)
(declare-fun call_firefly.ite20 () Int)
(declare-fun param_e3 () Bool)
(declare-fun call_firefly.ite28 () Int)
(declare-fun call_First.flby () Int)
(declare-fun call_firefly.ite19 () Int)
(declare-fun call_firefly.flby4 () Int)
(declare-fun call_excludes8.excludes () Bool)
(declare-fun call_firefly.ite7 () Int)
(declare-fun call_firefly.garde6 () Bool)
(declare-fun call_firefly.ite3 () Int)
(declare-fun call_firefly.ite27 () Int)
(declare-fun call_firefly.ite18 () Int)
(declare-fun call_firefly.garde8 () Bool)
(declare-fun call_firefly.invalid () Int)
(declare-fun call_Sofar.Sofar () Bool)
(declare-fun call_firefly.ite15 () Int)
(declare-fun param_e8 () Bool)
(declare-fun procs () Int)
(declare-fun call_firefly.ite11 () Int)
(declare-fun call_firefly.ite2 () Int)
(declare-fun call_firefly.ite16 () Int)
(declare-fun shared () Int)
(declare-fun call_firefly.ite39 () Int)
(declare-fun call_firefly.flby () Int)
(declare-fun call_firefly.mem_invalid () Int)
(declare-fun param_e6 () Bool)
(declare-fun call_firefly.ite32 () Int)
(declare-fun call_firefly.ite17 () Int)
(declare-fun call_firefly.ite4 () Int)
(declare-fun call_firefly.ite22 () Int)
(declare-fun call_firefly.ite12 () Int)
(declare-fun env () Bool)
(declare-fun call_Sofar.flby () Bool)
(declare-fun call_firefly.flby5 () Int)
(declare-fun call_firefly.ite29 () Int)
(declare-fun call_firefly.ite24 () Int)
(declare-fun call_firefly.ite35 () Int)
(declare-fun call_firefly.ite26 () Int)
(declare-fun call_firefly.ite9 () Int)
(declare-fun call_firefly.ite () Int)
(declare-fun call_firefly.ite6 () Int)
(define-fun .def_1126 () Bool (= call_First.flby call_First.First))
(define-fun .def_1124 () Bool (= call_Sofar.flby call_Sofar.Sofar))
(define-fun .def_936 () Bool (not param_e2))
(define-fun .def_917 () Bool (not param_e1))
(define-fun .def_1072 () Bool (and .def_917 .def_936))
(define-fun .def_964 () Bool (not param_e3))
(define-fun .def_1073 () Bool (and .def_964 .def_1072))
(define-fun .def_989 () Bool (not param_e4))
(define-fun .def_1074 () Bool (and .def_989 .def_1073))
(define-fun .def_1006 () Bool (not param_e5))
(define-fun .def_1075 () Bool (and .def_1006 .def_1074))
(define-fun .def_1024 () Bool (not param_e6))
(define-fun .def_1076 () Bool (and .def_1024 .def_1075))
(define-fun .def_846 () Bool (not param_e7))
(define-fun .def_1077 () Bool (and .def_846 .def_1076))
(define-fun .def_830 () Bool (not param_e8))
(define-fun .def_1113 () Bool (and .def_830 .def_1077))
(define-fun .def_1106 () Bool (and param_e1 .def_936))
(define-fun .def_1107 () Bool (and .def_964 .def_1106))
(define-fun .def_1108 () Bool (and .def_989 .def_1107))
(define-fun .def_1109 () Bool (and .def_1006 .def_1108))
(define-fun .def_1110 () Bool (and .def_1024 .def_1109))
(define-fun .def_1111 () Bool (and .def_846 .def_1110))
(define-fun .def_1112 () Bool (and .def_830 .def_1111))
(define-fun .def_1114 () Bool (or .def_1112 .def_1113))
(define-fun .def_1099 () Bool (and .def_917 param_e2))
(define-fun .def_1100 () Bool (and .def_964 .def_1099))
(define-fun .def_1101 () Bool (and .def_989 .def_1100))
(define-fun .def_1102 () Bool (and .def_1006 .def_1101))
(define-fun .def_1103 () Bool (and .def_1024 .def_1102))
(define-fun .def_1104 () Bool (and .def_846 .def_1103))
(define-fun .def_1105 () Bool (and .def_830 .def_1104))
(define-fun .def_1115 () Bool (or .def_1105 .def_1114))
(define-fun .def_1093 () Bool (and param_e3 .def_1072))
(define-fun .def_1094 () Bool (and .def_989 .def_1093))
(define-fun .def_1095 () Bool (and .def_1006 .def_1094))
(define-fun .def_1096 () Bool (and .def_1024 .def_1095))
(define-fun .def_1097 () Bool (and .def_846 .def_1096))
(define-fun .def_1098 () Bool (and .def_830 .def_1097))
(define-fun .def_1116 () Bool (or .def_1098 .def_1115))
(define-fun .def_1088 () Bool (and param_e4 .def_1073))
(define-fun .def_1089 () Bool (and .def_1006 .def_1088))
(define-fun .def_1090 () Bool (and .def_1024 .def_1089))
(define-fun .def_1091 () Bool (and .def_846 .def_1090))
(define-fun .def_1092 () Bool (and .def_830 .def_1091))
(define-fun .def_1117 () Bool (or .def_1092 .def_1116))
(define-fun .def_1084 () Bool (and param_e5 .def_1074))
(define-fun .def_1085 () Bool (and .def_1024 .def_1084))
(define-fun .def_1086 () Bool (and .def_846 .def_1085))
(define-fun .def_1087 () Bool (and .def_830 .def_1086))
(define-fun .def_1118 () Bool (or .def_1087 .def_1117))
(define-fun .def_1081 () Bool (and param_e6 .def_1075))
(define-fun .def_1082 () Bool (and .def_846 .def_1081))
(define-fun .def_1083 () Bool (and .def_830 .def_1082))
(define-fun .def_1119 () Bool (or .def_1083 .def_1118))
(define-fun .def_1079 () Bool (and param_e7 .def_1076))
(define-fun .def_1080 () Bool (and .def_830 .def_1079))
(define-fun .def_1120 () Bool (or .def_1080 .def_1119))
(define-fun .def_1078 () Bool (and param_e8 .def_1077))
(define-fun .def_1121 () Bool (or .def_1078 .def_1120))
(define-fun .def_1122 () Bool (= call_excludes8.excludes .def_1121))
(define-fun .def_1070 () Bool (= call_firefly.flby call_firefly.mem_invalid))
(define-fun .def_1068 () Bool (= call_firefly.flby5 call_firefly.shared))
(define-fun .def_1066 () Bool (= call_firefly.flby4 call_firefly.exclusive))
(define-fun .def_1064 () Bool (= call_firefly.flby3 call_firefly.dirty))
(define-fun .def_1062 () Bool (= call_firefly.flby2 call_firefly.invalid))
(define-fun .def_1060 () Bool (= dirty call_firefly.dirty))
(define-fun .def_1056 () Bool (= invalid call_firefly.invalid))
(define-fun .def_1051 () Bool (<= invalid procs))
(define-fun .def_1049 () Bool (not env))
(define-fun .def_1052 () Bool (or .def_1049 .def_1051))
(define-fun .def_1053 () Bool (= _OK_ .def_1052))
(define-fun .def_1044 () Bool (= call_firefly.ite36 call_firefly.ite37))
(define-fun .def_1045 () Bool (or param_e7 .def_1044))
(define-fun .def_1041 () Bool (= call_firefly.ite37 call_firefly.ite34))
(define-fun .def_1042 () Bool (or .def_846 .def_1041))
(define-fun .def_1037 () Bool (= call_firefly.ite8 call_firefly.ite5))
(define-fun .def_1038 () Bool (or .def_846 .def_1037))
(define-fun .def_1034 () Bool (= call_firefly.ite7 call_firefly.ite8))
(define-fun .def_1035 () Bool (or param_e7 .def_1034))
(define-fun .def_1039 () Bool (and .def_1035 .def_1038))
(define-fun .def_1043 () Bool (and .def_1039 .def_1042))
(define-fun .def_1046 () Bool (and .def_1043 .def_1045))
(define-fun .def_1030 () Bool (= call_firefly.ite17 call_firefly.ite18))
(define-fun .def_1031 () Bool (or param_e6 .def_1030))
(define-fun .def_1027 () Bool (= call_firefly.ite15 call_firefly.ite18))
(define-fun .def_1028 () Bool (or .def_1024 .def_1027))
(define-fun .def_1023 () Bool (= call_firefly.ite9 call_firefly.ite4))
(define-fun .def_1025 () Bool (or .def_1023 .def_1024))
(define-fun .def_1019 () Bool (= call_firefly.ite9 call_firefly.ite8))
(define-fun .def_1021 () Bool (or .def_1019 param_e6))
(define-fun .def_1026 () Bool (and .def_1021 .def_1025))
(define-fun .def_1029 () Bool (and .def_1026 .def_1028))
(define-fun .def_1032 () Bool (and .def_1029 .def_1031))
(define-fun .def_1014 () Bool (= call_firefly.ite38 call_firefly.ite37))
(define-fun .def_1015 () Bool (or param_e5 .def_1014))
(define-fun .def_1010 () Bool (= call_firefly.ite38 call_firefly.ite33))
(define-fun .def_1011 () Bool (or .def_1006 .def_1010))
(define-fun .def_1005 () Bool (= call_firefly.ite27 call_firefly.ite24))
(define-fun .def_1007 () Bool (or .def_1005 .def_1006))
(define-fun .def_1001 () Bool (= call_firefly.ite26 call_firefly.ite27))
(define-fun .def_1003 () Bool (or .def_1001 param_e5))
(define-fun .def_1008 () Bool (and .def_1003 .def_1007))
(define-fun .def_1012 () Bool (and .def_1008 .def_1011))
(define-fun .def_1016 () Bool (and .def_1012 .def_1015))
(define-fun .def_997 () Bool (= call_firefly.ite28 call_firefly.ite27))
(define-fun .def_998 () Bool (or param_e4 .def_997))
(define-fun .def_993 () Bool (= call_firefly.ite28 call_firefly.ite23))
(define-fun .def_994 () Bool (or .def_989 .def_993))
(define-fun .def_988 () Bool (= call_firefly.ite19 call_firefly.ite14))
(define-fun .def_990 () Bool (or .def_988 .def_989))
(define-fun .def_984 () Bool (= call_firefly.ite19 call_firefly.ite18))
(define-fun .def_986 () Bool (or .def_984 param_e4))
(define-fun .def_991 () Bool (and .def_986 .def_990))
(define-fun .def_995 () Bool (and .def_991 .def_994))
(define-fun .def_999 () Bool (and .def_995 .def_998))
(define-fun .def_979 () Bool (= call_firefly.ite39 call_firefly.ite38))
(define-fun .def_980 () Bool (or param_e3 .def_979))
(define-fun .def_975 () Bool (= call_firefly.ite39 call_firefly.ite32))
(define-fun .def_976 () Bool (or .def_964 .def_975))
(define-fun .def_971 () Bool (= call_firefly.ite29 call_firefly.ite28))
(define-fun .def_972 () Bool (or param_e3 .def_971))
(define-fun .def_967 () Bool (= call_firefly.ite22 call_firefly.ite29))
(define-fun .def_968 () Bool (or .def_964 .def_967))
(define-fun .def_963 () Bool (= call_firefly.ite10 call_firefly.ite3))
(define-fun .def_965 () Bool (or .def_963 .def_964))
(define-fun .def_959 () Bool (= call_firefly.ite10 call_firefly.ite9))
(define-fun .def_961 () Bool (or .def_959 param_e3))
(define-fun .def_966 () Bool (and .def_961 .def_965))
(define-fun .def_969 () Bool (and .def_966 .def_968))
(define-fun .def_973 () Bool (and .def_969 .def_972))
(define-fun .def_977 () Bool (and .def_973 .def_976))
(define-fun .def_981 () Bool (and .def_977 .def_980))
(define-fun .def_954 () Bool (= call_firefly.ite40 call_firefly.ite39))
(define-fun .def_955 () Bool (or param_e2 .def_954))
(define-fun .def_950 () Bool (= call_firefly.ite31 call_firefly.ite40))
(define-fun .def_951 () Bool (or .def_936 .def_950))
(define-fun .def_945 () Bool (= call_firefly.ite20 call_firefly.ite19))
(define-fun .def_946 () Bool (or param_e2 .def_945))
(define-fun .def_941 () Bool (= call_firefly.ite13 call_firefly.ite20))
(define-fun .def_942 () Bool (or .def_936 .def_941))
(define-fun .def_935 () Bool (= call_firefly.ite11 call_firefly.ite2))
(define-fun .def_937 () Bool (or .def_935 .def_936))
(define-fun .def_931 () Bool (= call_firefly.ite11 call_firefly.ite10))
(define-fun .def_933 () Bool (or .def_931 param_e2))
(define-fun .def_938 () Bool (and .def_933 .def_937))
(define-fun .def_943 () Bool (and .def_938 .def_942))
(define-fun .def_947 () Bool (and .def_943 .def_946))
(define-fun .def_952 () Bool (and .def_947 .def_951))
(define-fun .def_956 () Bool (and .def_952 .def_955))
(define-fun .def_926 () Bool (= call_firefly.ite30 call_firefly.ite29))
(define-fun .def_927 () Bool (or param_e1 .def_926))
(define-fun .def_922 () Bool (= call_firefly.ite21 call_firefly.ite30))
(define-fun .def_923 () Bool (or .def_917 .def_922))
(define-fun .def_916 () Bool (= call_firefly.ite12 call_firefly.ite))
(define-fun .def_918 () Bool (or .def_916 .def_917))
(define-fun .def_912 () Bool (= call_firefly.ite12 call_firefly.ite11))
(define-fun .def_914 () Bool (or .def_912 param_e1))
(define-fun .def_919 () Bool (and .def_914 .def_918))
(define-fun .def_924 () Bool (and .def_919 .def_923))
(define-fun .def_928 () Bool (and .def_924 .def_927))
(define-fun .def_908 () Bool (= procs call_First.First))
(define-fun .def_904 () Bool (= env call_Sofar.Sofar))
(define-fun .def_900 () Bool (= shared call_firefly.shared))
(define-fun .def_897 () Bool (= exclusive call_firefly.exclusive))
(define-fun .def_901 () Bool (and .def_897 .def_900))
(define-fun .def_905 () Bool (and .def_901 .def_904))
(define-fun .def_909 () Bool (and .def_905 .def_908))
(define-fun .def_929 () Bool (and .def_909 .def_928))
(define-fun .def_957 () Bool (and .def_929 .def_956))
(define-fun .def_982 () Bool (and .def_957 .def_981))
(define-fun .def_1000 () Bool (and .def_982 .def_999))
(define-fun .def_1017 () Bool (and .def_1000 .def_1016))
(define-fun .def_1033 () Bool (and .def_1017 .def_1032))
(define-fun .def_1047 () Bool (and .def_1033 .def_1046))
(define-fun .def_1054 () Bool (and .def_1047 .def_1053))
(define-fun .def_1057 () Bool (and .def_1054 .def_1056))
(define-fun .def_1061 () Bool (and .def_1057 .def_1060))
(define-fun .def_1063 () Bool (and .def_1061 .def_1062))
(define-fun .def_1065 () Bool (and .def_1063 .def_1064))
(define-fun .def_1067 () Bool (and .def_1065 .def_1066))
(define-fun .def_1069 () Bool (and .def_1067 .def_1068))
(define-fun .def_1071 () Bool (and .def_1069 .def_1070))
(define-fun .def_1123 () Bool (and .def_1071 .def_1122))
(define-fun .def_1125 () Bool (and .def_1123 .def_1124))
(define-fun .def_1127 () Bool (and .def_1125 .def_1126))
(define-fun .def_893 () Bool (= param_i_invalid call_First.flby))
(define-fun .def_886 () Bool (<= 5 param_i_invalid))
(define-fun .def_887 () Bool (not .def_886))
(define-fun .def_883 () Bool (<= 0 param_i_invalid))
(define-fun .def_885 () Bool (and .def_883 call_excludes8.excludes))
(define-fun .def_888 () Bool (and .def_885 .def_887))
(define-fun .def_890 () Bool (= .def_888 call_Sofar.flby))
(define-fun .def_881 () Bool (= call_firefly.flby5 0))
(define-fun .def_878 () Bool (= call_firefly.flby4 0))
(define-fun .def_875 () Bool (= call_firefly.flby3 0))
(define-fun .def_872 () Bool (= call_firefly.flby2 call_firefly.mem_invalid))
(define-fun .def_868 () Bool (= param_i_invalid call_firefly.flby))
(define-fun .def_863 () Bool (= call_firefly.ite25 0))
(define-fun .def_862 () Bool (not call_firefly.garde8))
(define-fun .def_864 () Bool (or .def_862 .def_863))
(define-fun .def_858 () Bool (= call_firefly.ite15 1))
(define-fun .def_856 () Bool (not call_firefly.garde6))
(define-fun .def_859 () Bool (or .def_856 .def_858))
(define-fun .def_852 () Bool (= call_firefly.ite22 0))
(define-fun .def_850 () Bool (not call_firefly.garde3))
(define-fun .def_853 () Bool (or .def_850 .def_852))
(define-fun .def_844 () Bool (= call_firefly.ite16 call_firefly.ite17))
(define-fun .def_847 () Bool (or .def_844 .def_846))
(define-fun .def_839 () Bool (= call_firefly.ite35 call_firefly.ite36))
(define-fun .def_840 () Bool (or .def_830 .def_839))
(define-fun .def_834 () Bool (= call_firefly.ite6 call_firefly.ite7))
(define-fun .def_835 () Bool (or .def_830 .def_834))
(define-fun .def_828 () Bool (= call_firefly.ite25 call_firefly.ite26))
(define-fun .def_831 () Bool (or .def_828 .def_830))
(define-fun .def_836 () Bool (and .def_831 .def_835))
(define-fun .def_841 () Bool (and .def_836 .def_840))
(define-fun .def_848 () Bool (and .def_841 .def_847))
(define-fun .def_854 () Bool (and .def_848 .def_853))
(define-fun .def_860 () Bool (and .def_854 .def_859))
(define-fun .def_865 () Bool (and .def_860 .def_864))
(define-fun .def_869 () Bool (and .def_865 .def_868))
(define-fun .def_873 () Bool (and .def_869 .def_872))
(define-fun .def_876 () Bool (and .def_873 .def_875))
(define-fun .def_879 () Bool (and .def_876 .def_878))
(define-fun .def_882 () Bool (and .def_879 .def_881))
(define-fun .def_891 () Bool (and .def_882 .def_890))
(define-fun .def_894 () Bool (and .def_891 .def_893))
(define-fun .def_1128 () Bool (and .def_894 .def_1127))
(assert .def_1128)
